
--- Job M-R_seguridad_bien.gms Start 05/30/23 15:12:51 41.2.0 5110e5ff WEX-WEI x86 64bit/MS Windows
--- Applying:
    D:\GAMS\41\gmsprmNT.txt
--- GAMS Parameters defined
    Input "G:\Mi unidad\TFG\src\gams\M-R_seguridad_bien.gms"
    PageSize 0
    ScrDir "G:\Mi unidad\TFG\src\gams\225b\"
    SysDir D:\GAMS\41\
    LogOption 3
    ErrMsg 1
    ErrorLog 99
    IDE 1
    LstTitleLeftAligned 1
Licensee: GAMS Demo license for Antonio Sevilla Sastre   G221121|0002CO-GEN
          UCM, Spain                                               DL079880
          C:\Users\Antonio\Documents\GAMS\gamslice.txt
          antsev01@ucm.es, Antonio Sevilla Sastre                          
          Demo license for demonstration and instructional purposes only
Processor information: 1 socket(s), 14 core(s), and 20 thread(s) available
GAMS 41.2.0   Copyright (C) 1987-2022 GAMS Development. All rights reserved
--- Starting compilation
--- M-R_seguridad_bien.gms(269) 3 Mb
--- Starting execution: elapsed 0:00:00.048
--- M-R_seguridad_bien.gms(142) 4 Mb
--- Generating MIP model modelo1
--- M-R_seguridad_bien.gms(267) 4 Mb
---   1,467 rows  1,036 columns  5,906 non-zeroes
---   1,006 discrete-columns
--- Range statistics (absolute non-zero finite values)
--- RHS       [min, max] : [ 1.000E+00, 2.000E+03] - Zero values observed as well
--- Bound     [min, max] : [ 1.000E+00, 1.000E+00] - Zero values observed as well
--- Matrix    [min, max] : [ 2.000E-01, 9.990E+02]
--- Executing CPLEX (Solvelink=2): elapsed 0:00:00.191

IBM ILOG CPLEX   41.2.0 5110e5ff Nov 14, 2022          WEI x86 64bit/MS Window

--- *** This solver runs with a demo license. No commercial use.
--- GMO setup time: 0.00s
--- Space for names approximately 0.06 Mb
--- Use option 'names no' to turn use of names off
--- GMO memory 0.79 Mb (peak 0.79 Mb)
--- Dictionary memory 0.00 Mb
--- Cplex 22.1.0.0 link memory 0.04 Mb (peak 0.19 Mb)
--- Starting Cplex

Version identifier: 22.1.0.0 | 2022-03-09 | 1a383f8ce
CPXPARAM_Advance                                 0
CPXPARAM_Threads                                 1
CPXPARAM_MIP_Display                             4
CPXPARAM_MIP_Pool_Capacity                       0
CPXPARAM_MIP_Tolerances_AbsMIPGap                0
Generic callback                                 0x50
Tried aggregator 2 times.
MIP Presolve eliminated 1216 rows and 547 columns.
MIP Presolve modified 212 coefficients.
Aggregator did 20 substitutions.
Reduced MIP has 230 rows, 469 columns, and 1341 nonzeros.
Reduced MIP has 467 binaries, 2 generals, 0 SOSs, and 0 indicators.
Presolve time = 0.02 sec. (2.64 ticks)
Found incumbent of value 8.000000 after 0.02 sec. (4.83 ticks)
Probing changed sense of 12 constraints.
Probing time = 0.00 sec. (0.46 ticks)
Tried aggregator 2 times.
Detecting symmetries...
MIP Presolve eliminated 28 rows and 16 columns.
MIP Presolve added 4 rows and 4 columns.
MIP Presolve modified 16 coefficients.
Aggregator did 8 substitutions.
Reduced MIP has 198 rows, 449 columns, and 1261 nonzeros.
Reduced MIP has 447 binaries, 2 generals, 0 SOSs, and 0 indicators.
Presolve time = 0.02 sec. (2.73 ticks)
Probing changed sense of 8 constraints.
Probing time = 0.00 sec. (0.41 ticks)
Clique table members: 510.
MIP emphasis: balance optimality and feasibility.
MIP search method: dynamic search.
Parallel mode: none, using 1 thread.
Tried aggregator 1 time.
LP Presolve eliminated 4 rows and 8 columns.
Aggregator did 4 substitutions.
Reduced LP has 190 rows, 437 columns, and 1241 nonzeros.
Presolve time = 0.00 sec. (0.24 ticks)
Initializing dual steep norms . . .

Iteration log . . .
Iteration:     1   Dual objective     =             0.000000
Perturbation started.
Iteration:    51   Dual objective     =             0.000000
Removing perturbation.
Initializing dual steep norms . . .
Root relaxation solution time = 0.00 sec. (1.01 ticks)

        Nodes                                         Cuts/
   Node  Left     Objective  IInf  Best Integer    Best Bound    ItCnt     Gap

*     0+    0                            8.0000        0.0000           100.00%
Found incumbent of value 8.000000 after 0.03 sec. (10.10 ticks)
      0     0        0.0000    34        8.0000        0.0000      114  100.00%
      0     0        0.0000    11        8.0000       Cuts: 7      142  100.00%
*     0+    0                            1.0000        0.0000           100.00%
Found incumbent of value 1.000000 after 0.05 sec. (13.93 ticks)
      0     0        0.0000    32        1.0000       Cuts: 8      160  100.00%
      0     0        0.0000    19        1.0000    MIRcuts: 1      169  100.00%
*     0+    0                            0.0000        0.0000             0.00%
Found incumbent of value 0.000000 after 0.05 sec. (17.78 ticks)
      0     0        cutoff              0.0000        0.0000      169    0.00%
Elapsed time = 0.05 sec. (17.78 ticks, tree = 0.01 MB)

Mixed integer rounding cuts applied:  1

Root node processing (before b&c):
  Real time             =    0.05 sec. (17.80 ticks)
Sequential b&c:
  Real time             =    0.00 sec. (0.00 ticks)
                          ------------
Total (root+branch&cut) =    0.05 sec. (17.80 ticks)

--- MIP status (101): integer optimal solution.
--- Cplex Time: 0.05sec (det. 17.80 ticks)

--- Fixing integer variables and solving final LP...

Version identifier: 22.1.0.0 | 2022-03-09 | 1a383f8ce
CPXPARAM_Advance                                 2
CPXPARAM_Threads                                 1
CPXPARAM_MIP_Display                             4
CPXPARAM_MIP_Pool_Capacity                       0
CPXPARAM_MIP_Tolerances_AbsMIPGap                0
Tried aggregator 1 time.
LP Presolve eliminated 1466 rows and 1036 columns.
All rows and columns eliminated.
Presolve time = 0.00 sec. (0.67 ticks)

--- Fixed MIP status (1): optimal.
--- Cplex Time: 0.00sec (det. 1.21 ticks)


Proven optimal solution
MIP Solution:            0.000000    (169 iterations, 0 nodes)
Final Solve:             0.000000    (0 iterations)

Best possible:           0.000000
Absolute gap:            0.000000
Relative gap:            0.000000

--- Reading solution for model modelo1
--- Executing after solve: elapsed 0:00:00.368
--- Generating MIP model modelo1
--- M-R_seguridad_bien.gms(268) 5 Mb
---   1,467 rows  1,036 columns  5,906 non-zeroes
---   1,006 discrete-columns
--- Range statistics (absolute non-zero finite values)
--- RHS       [min, max] : [ 1.000E+00, 2.000E+03] - Zero values observed as well
--- Bound     [min, max] : [ 1.000E+00, 1.000E+00] - Zero values observed as well
--- Matrix    [min, max] : [ 2.000E-01, 9.990E+02]
--- Executing CPLEX (Solvelink=2): elapsed 0:00:00.495

IBM ILOG CPLEX   41.2.0 5110e5ff Nov 14, 2022          WEI x86 64bit/MS Window

--- *** This solver runs with a demo license. No commercial use.
--- GMO setup time: 0.00s
--- Space for names approximately 0.06 Mb
--- Use option 'names no' to turn use of names off
--- GMO memory 0.79 Mb (peak 0.79 Mb)
--- Dictionary memory 0.00 Mb
--- Cplex 22.1.0.0 link memory 0.04 Mb (peak 0.19 Mb)
--- Starting Cplex

Version identifier: 22.1.0.0 | 2022-03-09 | 1a383f8ce
CPXPARAM_Advance                                 0
CPXPARAM_Threads                                 1
CPXPARAM_MIP_Display                             4
CPXPARAM_MIP_Pool_Capacity                       0
CPXPARAM_MIP_Tolerances_AbsMIPGap                0
Generic callback                                 0x50
Tried aggregator 2 times.
MIP Presolve eliminated 1202 rows and 537 columns.
MIP Presolve modified 212 coefficients.
Aggregator did 30 substitutions.
Reduced MIP has 235 rows, 470 columns, and 1351 nonzeros.
Reduced MIP has 467 binaries, 2 generals, 0 SOSs, and 0 indicators.
Presolve time = 0.00 sec. (2.69 ticks)
Found incumbent of value 1.000000 after 0.02 sec. (4.91 ticks)
Probing changed sense of 12 constraints.
Probing time = 0.00 sec. (0.47 ticks)
Tried aggregator 2 times.
Detecting symmetries...
MIP Presolve eliminated 28 rows and 16 columns.
MIP Presolve added 4 rows and 4 columns.
MIP Presolve modified 16 coefficients.
Aggregator did 8 substitutions.
Reduced MIP has 203 rows, 450 columns, and 1271 nonzeros.
Reduced MIP has 447 binaries, 2 generals, 0 SOSs, and 0 indicators.
Presolve time = 0.00 sec. (2.75 ticks)
Probing changed sense of 8 constraints.
Probing time = 0.00 sec. (0.41 ticks)
Clique table members: 510.
MIP emphasis: balance optimality and feasibility.
MIP search method: dynamic search.
Parallel mode: none, using 1 thread.
Tried aggregator 1 time.
LP Presolve eliminated 4 rows and 8 columns.
Aggregator did 4 substitutions.
Reduced LP has 195 rows, 438 columns, and 1251 nonzeros.
Presolve time = 0.00 sec. (0.24 ticks)
Initializing dual steep norms . . .

Iteration log . . .
Iteration:     1   Dual objective     =             0.000000
Perturbation started.
Iteration:    51   Dual objective     =             0.000000
Removing perturbation.
Initializing dual steep norms . . .
Root relaxation solution time = 0.00 sec. (0.97 ticks)

        Nodes                                         Cuts/
   Node  Left     Objective  IInf  Best Integer    Best Bound    ItCnt     Gap

*     0+    0                            1.0000        0.0000           100.00%
Found incumbent of value 1.000000 after 0.02 sec. (10.17 ticks)
      0     0        0.0000    24        1.0000        0.0000       87  100.00%
      0     0        0.0000    15        1.0000      Cuts: 10      125  100.00%
      0     0        0.0000    30        1.0000      Cuts: 11      147  100.00%
*     0+    0                            0.5000        0.0000           100.00%
Found incumbent of value 0.500000 after 0.03 sec. (13.81 ticks)
*     0+    0                            0.0000        0.0000             0.00%
Found incumbent of value 0.000000 after 0.03 sec. (15.86 ticks)
      0     0        cutoff              0.0000        0.0000      147    0.00%
Elapsed time = 0.03 sec. (15.86 ticks, tree = 0.01 MB)

Mixed integer rounding cuts applied:  1
Gomory fractional cuts applied:  2

Root node processing (before b&c):
  Real time             =    0.03 sec. (15.88 ticks)
Sequential b&c:
  Real time             =    0.00 sec. (0.00 ticks)
                          ------------
Total (root+branch&cut) =    0.03 sec. (15.88 ticks)

--- MIP status (101): integer optimal solution.
--- Cplex Time: 0.03sec (det. 15.89 ticks)

--- Fixing integer variables and solving final LP...

Version identifier: 22.1.0.0 | 2022-03-09 | 1a383f8ce
CPXPARAM_Advance                                 2
CPXPARAM_Threads                                 1
CPXPARAM_MIP_Display                             4
CPXPARAM_MIP_Pool_Capacity                       0
CPXPARAM_MIP_Tolerances_AbsMIPGap                0
Tried aggregator 1 time.
LP Presolve eliminated 1467 rows and 1037 columns.
All rows and columns eliminated.
Presolve time = 0.00 sec. (0.67 ticks)

--- Fixed MIP status (1): optimal.
--- Cplex Time: 0.00sec (det. 1.21 ticks)


Proven optimal solution
MIP Solution:            0.000000    (147 iterations, 0 nodes)
Final Solve:             0.000000    (0 iterations)

Best possible:           0.000000
Absolute gap:            0.000000
Relative gap:            0.000000

--- Reading solution for model modelo1
*** Status: Normal completion
--- Job M-R_seguridad_bien.gms Stop 05/30/23 15:12:52 elapsed 0:00:00.736
